26209
41280
70911
84382
98797
7039
18405
97984
74028
49270
35952
83931
92611
97870
68268
93308
27304
11809
90834
24320
10379
13815
438
81
75108
9598
83656
15050
11176
43006
23306
97860
81279
94926
67657
81998
18907
61868
82319
22744
24500
22166
18737
64387
27033
70205
32039
79492
87598
67449